TYPE: TSP
DIMENSION: 6
EDGE_WEIGHT_TYPE: EXPLICIT
EDGE_WEIGHT_FORMAT: FULL_MATRIX	
EDGE_WEIGHT_SECTION:
0  	745  	665  	929  	605  	521  
745   	0   	80  	337 	1090  	315  
665 	80    	0  	380 	1020  	257  
929 	337  	380    	0 	1380  	408  
605 	1090 	1020 	1380   	0 	1010  
521  	315  	257  	408 	1010   	0  